words_hard_train/9344.qaiger
aag 112 16 0 1 96
2
4
8
12
16
20
24
32
34
38
44
48
54
60
66
202
224
6 2 4
10 6 8
14 10 12
18 14 16
22 18 20
26 23 25
28 22 24
30 27 29
36 32 34
40 38 34
42 37 41
46 42 45
50 46 49
52 51 34
56 53 55
58 57 34
62 59 61
64 63 34
68 65 67
70 64 66
72 69 71
74 58 60
76 75 63
78 52 54
80 57 79
82 47 34
84 82 48
86 83 49
88 85 87
90 43 44
92 91 47
94 40 33
96 41 32
98 95 97
100 98 38
102 93 100
104 89 102
106 81 104
108 77 106
110 72 109
112 73 108
114 111 113
116 31 115
118 7 9
120 119 11
122 121 92
124 123 103
126 2 38
128 127 5
130 128 99
132 131 7
134 133 101
136 120 93
138 134 137
140 124 139
142 11 13
144 143 15
146 88 103
148 147 105
150 144 148
152 141 151
154 145 149
156 153 155
158 15 17
160 159 19
162 80 105
164 163 107
166 161 165
168 156 167
170 19 21
172 171 23
174 76 107
176 175 109
178 172 176
180 169 179
182 160 164
184 180 183
186 117 185
188 173 177
190 186 189
192 30 114
194 191 193
196 194 113
198 62 34
200 198 67
204 28 203
206 29 202
208 205 207
210 200 208
212 196 211
214 195 112
216 210 214
218 213 217
220 201 215
222 220 209
224 218 223
i0 2 y2[0]
i1 2 y2[1]
i2 2 y2[2]
i3 2 y2[3]
i4 2 y2[4]
i5 2 y2[5]
i6 2 y2[6]
i7 1 x1[1]
i8 1 x1[7]
i9 1 x1[0]
i10 1 x1[2]
i11 1 x1[3]
i12 1 x1[4]
i13 1 x1[5]
i14 1 x1[6]
i15 2 y2[7]
o0 bv[0]
c
simplified
  >=
    add
      2 y2
      1
    xor
      1
      abs
        1 x1
