words_hard_train/9344.qaiger.qdimacs
p cnf 112 289
a 33 16 17 19 22 24 27 30 0
e 1 2 3 4 5 6 7 8 9 10 11 12 13 14 15 18 20 21 23 25 26 28 29 31 32 34 35 36 37 38 39 40 41 42 43 44 45 46 47 48 49 50 51 52 53 54 55 56 57 58 59 60 61 62 63 64 65 66 67 68 69 70 71 72 73 74 75 76 77 78 79 80 81 82 83 84 85 86 87 88 89 90 91 92 93 94 95 96 97 98 99 100 101 102 103 104 105 106 107 108 109 110 111 112 0
-1 -2 3 0
1 -3 0
2 -3 0
-3 -4 5 0
3 -5 0
4 -5 0
-5 -6 7 0
5 -7 0
6 -7 0
-7 -8 9 0
7 -9 0
8 -9 0
-9 -10 11 0
9 -11 0
10 -11 0
11 12 13 0
-11 -13 0
-12 -13 0
-11 -12 14 0
11 -14 0
12 -14 0
13 14 15 0
-13 -15 0
-14 -15 0
-16 -17 18 0
16 -18 0
17 -18 0
-19 -17 20 0
19 -20 0
17 -20 0
18 20 21 0
-18 -21 0
-20 -21 0
-21 22 23 0
21 -23 0
-22 -23 0
-23 24 25 0
23 -25 0
-24 -25 0
25 -17 26 0
-25 -26 0
17 -26 0
26 27 28 0
-26 -28 0
-27 -28 0
28 -17 29 0
-28 -29 0
17 -29 0
29 30 31 0
-29 -31 0
-30 -31 0
31 -17 32 0
-31 -32 0
17 -32 0
32 33 34 0
-32 -34 0
-33 -34 0
-32 -33 35 0
32 -35 0
33 -35 0
34 35 36 0
-34 -36 0
-35 -36 0
-29 -30 37 0
29 -37 0
30 -37 0
37 31 38 0
-37 -38 0
-31 -38 0
-26 -27 39 0
26 -39 0
27 -39 0
28 39 40 0
-28 -40 0
-39 -40 0
23 -17 41 0
-23 -41 0
17 -41 0
-41 -24 42 0
41 -42 0
24 -42 0
41 24 43 0
-41 -43 0
-24 -43 0
42 43 44 0
-42 -44 0
-43 -44 0
21 -22 45 0
-21 -45 0
22 -45 0
45 23 46 0
-45 -46 0
-23 -46 0
-20 16 47 0
20 -47 0
-16 -47 0
20 -16 48 0
-20 -48 0
16 -48 0
47 48 49 0
-47 -49 0
-48 -49 0
-49 -19 50 0
49 -50 0
19 -50 0
46 -50 51 0
-46 -51 0
50 -51 0
44 -51 52 0
-44 -52 0
51 -52 0
40 -52 53 0
-40 -53 0
52 -53 0
38 -53 54 0
-38 -54 0
53 -54 0
-36 54 55 0
36 -55 0
-54 -55 0
36 -54 56 0
-36 -56 0
54 -56 0
55 56 57 0
-55 -57 0
-56 -57 0
15 57 58 0
-15 -58 0
-57 -58 0
3 4 59 0
-3 -59 0
-4 -59 0
59 5 60 0
-59 -60 0
-5 -60 0
60 -46 61 0
-60 -61 0
46 -61 0
61 51 62 0
-61 -62 0
-51 -62 0
-1 -19 63 0
1 -63 0
19 -63 0
63 2 64 0
-63 -64 0
-2 -64 0
-64 49 65 0
64 -65 0
-49 -65 0
65 3 66 0
-65 -66 0
-3 -66 0
66 50 67 0
-66 -67 0
-50 -67 0
-60 46 68 0
60 -68 0
-46 -68 0
-67 68 69 0
67 -69 0
-68 -69 0
-62 69 70 0
62 -70 0
-69 -70 0
5 6 71 0
-5 -71 0
-6 -71 0
71 7 72 0
-71 -72 0
-7 -72 0
-44 51 73 0
44 -73 0
-51 -73 0
73 52 74 0
-73 -74 0
-52 -74 0
-72 -74 75 0
72 -75 0
74 -75 0
70 75 76 0
-70 -76 0
-75 -76 0
72 74 77 0
-72 -77 0
-74 -77 0
76 77 78 0
-76 -78 0
-77 -78 0
7 8 79 0
-7 -79 0
-8 -79 0
79 9 80 0
-79 -80 0
-9 -80 0
-40 52 81 0
40 -81 0
-52 -81 0
81 53 82 0
-81 -82 0
-53 -82 0
80 82 83 0
-80 -83 0
-82 -83 0
-78 83 84 0
78 -84 0
-83 -84 0
9 10 85 0
-9 -85 0
-10 -85 0
85 11 86 0
-85 -86 0
-11 -86 0
-38 53 87 0
38 -87 0
-53 -87 0
87 54 88 0
-87 -88 0
-54 -88 0
-86 -88 89 0
86 -89 0
88 -89 0
84 89 90 0
-84 -90 0
-89 -90 0
-80 -82 91 0
80 -91 0
82 -91 0
-90 91 92 0
90 -92 0
-91 -92 0
58 92 93 0
-58 -93 0
-92 -93 0
86 88 94 0
-86 -94 0
-88 -94 0
-93 94 95 0
93 -95 0
-94 -95 0
-15 -57 96 0
15 -96 0
57 -96 0
95 96 97 0
-95 -97 0
-96 -97 0
-97 56 98 0
97 -98 0
-56 -98 0
-31 -17 99 0
31 -99 0
17 -99 0
-99 33 100 0
99 -100 0
-33 -100 0
-14 101 102 0
14 -102 0
-101 -102 0
14 -101 103 0
-14 -103 0
101 -103 0
102 103 104 0
-102 -104 0
-103 -104 0
-100 -104 105 0
100 -105 0
104 -105 0
-98 105 106 0
98 -106 0
-105 -106 0
97 -56 107 0
-97 -107 0
56 -107 0
-105 -107 108 0
105 -108 0
107 -108 0
106 108 109 0
-106 -109 0
-108 -109 0
100 107 110 0
-100 -110 0
-107 -110 0
-110 104 111 0
110 -111 0
-104 -111 0
-109 111 112 0
109 -112 0
-111 -112 0
112 0
